solution status: optimal solution found
objective value:                                   14
one.ctrl_a[6].hole_y                                1 	(obj:0)
one.ctrl_a[6].hole_z                               -2 	(obj:0)
one.thingy.devices[1].thingy.vs1_y                    3 	(obj:0)
one.thingy.devices[1].thingy.vs1_z                    2 	(obj:0)
one.thingy.devices[2].thingy.vs1_y                    3 	(obj:0)
one.thingy.devices[2].thingy.vs1_z                    4 	(obj:0)
one.thingy.devices[3].thingy.vs1_y                    4 	(obj:0)
one.thingy.devices[3].thingy.vs1_z                    5 	(obj:0)
one.thingy.devices[3].thingy.circulate2_y                    3 	(obj:0)
one.thingy.devices[3].thingy.circulate2_z                    5 	(obj:0)
one.thingy.devices[1].thingy.circulate2_y                    7 	(obj:0)
one.thingy.devices[1].thingy.circulate2_z                    4 	(obj:0)
one.thingy.devices[0].thingy.circulate2_y                    7 	(obj:0)
one.thingy.devices[0].thingy.circulate2_z                    3 	(obj:0)
one.ctrl_a[5].hole_y                                3 	(obj:0)
one.ctrl_a[5].hole_z                               -1 	(obj:0)
one.thingy.devices[0].thingy.vs1_y                    5 	(obj:0)
one.thingy.devices[0].thingy.vs1_z                    2 	(obj:0)
one.ctrl_a[5].flush_y                              -1 	(obj:0)
one.ctrl_a[5].flush_z                               1 	(obj:0)
one.thingy.devices[2].thingy.circulate2_y                    5 	(obj:0)
one.thingy.devices[2].thingy.circulate2_z                    5 	(obj:0)
one.ctrl_a[6].flush_z                               1 	(obj:0)
x31                                                 2 	(obj:1)
x32                                                 1 	(obj:1)
x34                                                 2 	(obj:1)
x37                                                 2 	(obj:1)
x43                                                 2 	(obj:1)
x44                                                 1 	(obj:1)
x57                                                 2 	(obj:1)
x58                                                 2 	(obj:1)
